(set-logic QF_S)
(declare-fun var0 () String)
(declare-fun var1 () String)
(declare-fun var2 () String)
(declare-fun var3 () Int)
(declare-fun var4 () Int)
(declare-fun var5 () Int)
(declare-fun var6 () String)
(declare-fun var7 () Int)
(assert (str.contains var0 var1))
(assert (str.prefixof (str.at var2 10) (str.at "&y[g;(&A" var3)))
(assert (>= var4 var5))
(assert (<= (str.to.int (str.replace var6 var1 var0)) (str.len (str.substr var1 var7 var3))))
(check-sat)